(set-info :smt-lib-version 2.6)
(set-logic QF_SLIA)
(set-info :source |
Generated by: Hung-En Wang, Shih-Yu Chen, Fang Yu, and Jie-Hong R. Jiang
Generated on: 2019-02-28
Generator: modified from Kaluza benchmarks
Application: Security analysis of string manipulating web applications with string length constraints
Target solver: ABC, CVC4, Norn, S3P, Trau, Z3-str3
Publication:
Hung-En Wang, Shih-Yu Chen, Fang Yu, Jie-Hong R. Jiang:
A symbolic model checking approach to the analysis of string and length constraints. ASE 2018: 623-633
|)
(set-info :license "https://creativecommons.org/licenses/by/4.0/")
(set-info :category "industrial")
(set-info :status unknown)

(declare-fun T_1c () Bool)
(declare-fun T_22 () Bool)
(declare-fun T_6 () Bool)
(declare-fun T_8 () Bool)
(declare-fun T_9 () Bool)
(declare-fun T_SELECT_1 () Bool)
(declare-fun T_SELECT_2 () Bool)
(declare-fun T_SELECT_4 () Bool)
(declare-fun T_c () Bool)
(declare-fun I0_14 () Int)
(declare-fun I0_44 () Int)
(declare-fun I1_14 () Int)
(declare-fun I1_44 () Int)
(declare-fun I2_14 () Int)
(declare-fun I2_44 () Int)
(declare-fun PCTEMP_LHS_1 () Int)
(declare-fun PCTEMP_LHS_2 () Int)
(declare-fun PCTEMP_LHS_6 () Int)
(declare-fun T_1f () Int)
(declare-fun T_20 () Int)
(declare-fun T_a () Int)
(declare-fun NEW_DGNode_112 () String)
(declare-fun NEW_DGNode_116 () String)
(declare-fun NEW_DGNode_117 () String)
(declare-fun NEW_DGNode_119 () String)
(declare-fun NEW_DGNode_120 () String)
(declare-fun NEW_DGNode_17 () String)
(declare-fun NEW_DGNode_21 () String)
(declare-fun NEW_DGNode_48 () String)
(declare-fun NEW_DGNode_52 () String)
(declare-fun PCTEMP_LHS_3 () String)
(declare-fun PCTEMP_LHS_8 () String)
(declare-fun T1_79 () String)
(declare-fun T1_80 () String)
(declare-fun T2_79 () String)
(declare-fun T2_80 () String)
(declare-fun T_23 () String)
(declare-fun T_37 () String)
(declare-fun T_38 () String)
(declare-fun T_d () String)
(assert (= T_38 (str.++ NEW_DGNode_112 T_37)))
(assert (= NEW_DGNode_112 "http://www.google-analytics.com/__utm.gif?utmwv=1.3&utmn=1778764209&utmcs=UTF-8&utmsr=1680x976&utmsc=24-bit&utmul=en-us&utmje=0&utmfl=-&utmdt=Ask%20A%20Word&utmhn=www.askaword.com&utmhid=1959021896&utmr=0&utmp=/search.jsp?d=gg&utmac=UA-167675-3&utmcc="))
(assert (= T_37 (str.++ T1_80 T2_80)))
(assert (= T1_80 (str.++ T1_79 T2_79)))
(assert (= T1_79 ""))
(assert (= T2_79 NEW_DGNode_117))
(assert (= NEW_DGNode_117 NEW_DGNode_116))
(assert (= NEW_DGNode_117 (str.++ T_d NEW_DGNode_21)))
(assert (= T_d (str.++ NEW_DGNode_17 PCTEMP_LHS_3)))
(assert (= NEW_DGNode_17 "__utma="))
(assert (not (str.in_re PCTEMP_LHS_3 (str.to_re "-"))))
(assert (= NEW_DGNode_21 ";+"))
(assert (not (str.in_re NEW_DGNode_116 (str.to_re "%"))))
(assert (= T2_80 NEW_DGNode_120))
(assert (= NEW_DGNode_120 NEW_DGNode_119))
(assert (= NEW_DGNode_120 (str.++ T_23 NEW_DGNode_52)))
(assert (= T_23 (str.++ NEW_DGNode_48 PCTEMP_LHS_8)))
(assert (= NEW_DGNode_48 "__utmz="))
(assert (not (str.in_re PCTEMP_LHS_8 (str.to_re "-"))))
(assert (= NEW_DGNode_52 ";+"))
(assert (not (str.in_re NEW_DGNode_119 (str.to_re "%"))))
(assert (= T_SELECT_2 (not (= PCTEMP_LHS_2 (- 1)))))
(assert T_9)
(assert (= T_9 (not T_8)))
(assert (= T_8 (< PCTEMP_LHS_2 0)))
(assert (= T_SELECT_1 (not (= PCTEMP_LHS_1 (- 1)))))
(assert T_6)
(assert (= T_6 (< (- 1) PCTEMP_LHS_1)))
(assert (= T_a (+ PCTEMP_LHS_1 7)))
(assert (>= T_a 0))
(assert (>= PCTEMP_LHS_2 T_a))
(assert (= I2_14 I1_14))
(assert (<= PCTEMP_LHS_2 I1_14))
(assert (= I0_14 (- PCTEMP_LHS_2 T_a)))
(assert (= I0_14 (str.len PCTEMP_LHS_3))) ; len 0
(assert T_c)
(assert (= T_SELECT_4 (not (= PCTEMP_LHS_6 (- 1)))))
(assert T_1c)
(assert (= T_1c (< (- 1) PCTEMP_LHS_6)))
(assert (= T_1f (+ PCTEMP_LHS_6 7)))
(assert (>= T_1f 0))
(assert (>= T_20 T_1f))
(assert (= I2_44 I1_44))
(assert (<= T_20 I1_44))
(assert (= I0_44 (- T_20 T_1f)))
(assert (= I0_44 (str.len PCTEMP_LHS_8))) ; len 1
(assert T_22)
(check-sat)
(exit)
